80
1275
20
7
66
72
26
79
71
89
11
69
65
4
99
83
80
91
49
71
37
27
84
0 1
0 2
0 3
0 5
0 9
0 15
0 16
0 21
0 24
0 25
0 26
0 38
0 39
0 42
0 44
0 47
0 48
0 51
0 54
0 55
0 56
0 59
0 60
0 62
0 66
0 72
1 2
1 7
1 9
1 11
1 12
1 18
1 21
1 22
1 25
1 27
1 28
1 31
1 33
1 34
1 36
1 37
1 43
1 47
1 51
1 54
1 62
1 64
1 70
1 71
1 73
1 76
1 78
1 79
2 6
2 7
2 12
2 13
2 14
2 15
2 19
2 23
2 29
2 30
2 31
2 33
2 35
2 39
2 41
2 43
2 49
2 50
2 52
2 55
2 56
2 57
2 61
2 75
2 76
2 77
3 4
3 6
3 8
3 13
3 14
3 22
3 24
3 25
3 26
3 29
3 32
3 33
3 34
3 36
3 39
3 40
3 44
3 46
3 47
3 50
3 51
3 52
3 53
3 55
3 59
3 60
3 61
3 62
3 63
3 64
3 65
3 68
3 71
3 74
3 76
4 8
4 12
4 13
4 14
4 18
4 19
4 20
4 21
4 31
4 32
4 34
4 37
4 39
4 40
4 43
4 44
4 46
4 49
4 50
4 51
4 52
4 54
4 56
4 57
4 59
4 62
4 63
4 65
4 67
4 69
4 71
4 75
4 77
4 78
5 8
5 10
5 11
5 19
5 24
5 26
5 28
5 29
5 31
5 33
5 34
5 37
5 39
5 40
5 43
5 44
5 46
5 48
5 52
5 53
5 58
5 61
5 64
5 65
5 66
5 73
5 74
5 75
6 9
6 10
6 15
6 16
6 18
6 21
6 28
6 29
6 33
6 34
6 37
6 38
6 40
6 43
6 45
6 51
6 54
6 57
6 58
6 64
6 65
6 66
6 67
6 71
6 72
6 74
6 75
6 76
6 77
7 8
7 12
7 18
7 21
7 22
7 23
7 27
7 28
7 29
7 30
7 31
7 32
7 36
7 37
7 39
7 42
7 44
7 45
7 47
7 48
7 50
7 52
7 55
7 56
7 57
7 58
7 62
7 63
7 65
7 69
7 74
7 77
8 10
8 12
8 14
8 15
8 18
8 20
8 21
8 23
8 24
8 27
8 29
8 30
8 32
8 40
8 42
8 43
8 48
8 49
8 50
8 51
8 52
8 53
8 58
8 59
8 60
8 61
8 62
8 67
8 68
8 71
8 73
8 74
8 75
8 76
8 77
9 11
9 14
9 15
9 16
9 26
9 27
9 32
9 33
9 36
9 38
9 39
9 41
9 43
9 50
9 53
9 55
9 56
9 57
9 65
9 71
9 74
9 77
9 78
9 79
10 11
10 14
10 17
10 19
10 22
10 26
10 28
10 29
10 31
10 32
10 35
10 36
10 37
10 38
10 39
10 41
10 43
10 46
10 48
10 54
10 57
10 60
10 61
10 65
10 72
10 74
10 75
10 78
11 13
11 17
11 20
11 22
11 24
11 25
11 30
11 31
11 32
11 34
11 36
11 38
11 41
11 42
11 43
11 47
11 48
11 50
11 55
11 60
11 62
11 64
11 70
11 73
11 77
11 79
12 15
12 16
12 18
12 24
12 25
12 27
12 31
12 33
12 36
12 37
12 39
12 41
12 42
12 43
12 45
12 46
12 47
12 48
12 50
12 57
12 58
12 65
12 68
12 69
12 72
12 74
12 77
12 78
13 15
13 16
13 18
13 19
13 20
13 21
13 26
13 27
13 28
13 30
13 31
13 33
13 35
13 40
13 41
13 45
13 46
13 47
13 50
13 51
13 53
13 55
13 56
13 57
13 62
13 63
13 64
13 67
13 74
13 79
14 15
14 16
14 22
14 23
14 31
14 33
14 34
14 36
14 40
14 43
14 49
14 51
14 52
14 54
14 57
14 62
14 63
14 66
14 68
14 69
14 73
14 76
14 77
15 18
15 20
15 22
15 23
15 25
15 26
15 28
15 30
15 31
15 37
15 41
15 47
15 48
15 51
15 53
15 57
15 58
15 60
15 72
15 73
15 75
16 17
16 19
16 20
16 21
16 23
16 24
16 29
16 30
16 32
16 35
16 36
16 40
16 43
16 44
16 48
16 53
16 57
16 59
16 62
16 63
16 64
16 68
16 73
16 75
16 76
16 77
17 18
17 19
17 20
17 23
17 25
17 26
17 28
17 32
17 35
17 39
17 41
17 47
17 48
17 50
17 52
17 57
17 59
17 60
17 61
17 62
17 64
17 70
17 72
17 73
17 76
18 19
18 21
18 24
18 26
18 28
18 32
18 33
18 34
18 36
18 37
18 39
18 41
18 45
18 49
18 50
18 52
18 53
18 56
18 60
18 66
18 68
18 71
18 73
18 74
18 78
19 20
19 21
19 23
19 24
19 25
19 30
19 31
19 32
19 33
19 36
19 41
19 44
19 54
19 57
19 61
19 64
19 65
19 69
19 70
19 75
19 77
20 23
20 30
20 32
20 33
20 36
20 37
20 38
20 40
20 41
20 44
20 46
20 48
20 49
20 50
20 52
20 53
20 54
20 57
20 59
20 61
20 64
20 65
20 69
20 77
20 78
21 22
21 23
21 24
21 27
21 30
21 31
21 32
21 33
21 35
21 41
21 42
21 43
21 44
21 47
21 50
21 51
21 55
21 56
21 57
21 58
21 60
21 61
21 62
21 63
21 67
21 71
21 72
21 73
21 74
21 75
21 77
22 23
22 24
22 27
22 28
22 32
22 36
22 37
22 38
22 39
22 42
22 44
22 46
22 48
22 50
22 51
22 53
22 57
22 61
22 62
22 64
22 66
22 67
22 69
22 71
22 75
22 76
22 78
23 24
23 26
23 33
23 34
23 36
23 37
23 40
23 42
23 43
23 45
23 49
23 57
23 59
23 60
23 61
23 62
23 63
23 69
23 70
23 71
23 75
23 77
23 78
24 27
24 28
24 30
24 31
24 37
24 38
24 39
24 40
24 41
24 42
24 46
24 52
24 53
24 55
24 58
24 59
24 61
24 64
24 65
24 68
24 69
24 74
24 75
24 76
24 77
24 78
24 79
25 27
25 30
25 33
25 35
25 36
25 37
25 39
25 40
25 45
25 51
25 52
25 54
25 55
25 57
25 58
25 59
25 63
25 66
25 67
25 70
25 74
25 75
25 76
25 79
26 28
26 29
26 30
26 36
26 37
26 38
26 43
26 44
26 45
26 46
26 49
26 50
26 51
26 54
26 56
26 57
26 59
26 64
26 66
26 68
26 69
26 71
26 72
26 76
26 78
27 28
27 29
27 30
27 31
27 44
27 46
27 48
27 49
27 51
27 53
27 55
27 65
27 69
27 75
27 76
27 78
27 79
28 31
28 32
28 34
28 36
28 37
28 40
28 41
28 43
28 45
28 49
28 50
28 51
28 55
28 56
28 57
28 59
28 64
28 69
28 71
28 74
28 75
28 77
29 30
29 32
29 34
29 37
29 38
29 39
29 40
29 41
29 42
29 45
29 46
29 50
29 51
29 52
29 56
29 59
29 60
29 61
29 62
29 65
29 68
29 69
29 70
29 73
29 75
30 32
30 35
30 38
30 40
30 42
30 46
30 47
30 50
30 51
30 56
30 60
30 61
30 64
30 65
30 66
30 68
30 70
30 73
30 75
30 78
31 32
31 33
31 35
31 37
31 38
31 39
31 40
31 41
31 43
31 44
31 45
31 51
31 52
31 54
31 57
31 58
31 61
31 65
31 68
31 70
31 73
32 34
32 36
32 37
32 38
32 39
32 46
32 49
32 50
32 53
32 54
32 61
32 62
32 63
32 64
32 67
32 68
32 71
32 73
32 74
32 75
33 35
33 37
33 42
33 43
33 44
33 45
33 46
33 53
33 56
33 58
33 59
33 62
33 63
33 70
33 73
33 77
33 79
34 37
34 38
34 40
34 41
34 42
34 43
34 44
34 45
34 47
34 48
34 49
34 51
34 55
34 57
34 61
34 65
34 66
34 70
34 79
35 37
35 39
35 44
35 46
35 48
35 49
35 54
35 59
35 60
35 62
35 68
35 70
35 75
35 76
35 78
35 79
36 38
36 44
36 47
36 51
36 54
36 56
36 60
36 62
36 66
36 68
36 70
36 73
37 42
37 43
37 44
37 50
37 51
37 53
37 54
37 58
37 59
37 60
37 61
37 62
37 64
37 71
37 77
37 79
38 39
38 40
38 45
38 46
38 51
38 56
38 61
38 65
38 70
38 73
38 74
38 79
39 41
39 45
39 46
39 47
39 53
39 54
39 56
39 58
39 59
39 67
39 70
39 73
39 74
40 44
40 47
40 48
40 49
40 50
40 51
40 54
40 56
40 57
40 58
40 60
40 63
40 71
40 76
40 77
40 78
41 44
41 45
41 47
41 49
41 52
41 58
41 59
41 60
41 61
41 68
41 70
41 74
41 78
42 43
42 45
42 46
42 47
42 50
42 53
42 56
42 58
42 66
42 67
42 72
42 74
42 78
42 79
43 46
43 47
43 48
43 50
43 54
43 55
43 56
43 57
43 58
43 59
43 60
43 61
43 62
43 63
43 64
43 67
43 68
43 72
43 73
43 75
43 77
44 47
44 53
44 55
44 56
44 60
44 62
44 69
44 71
44 72
44 76
45 47
45 48
45 49
45 50
45 55
45 60
45 63
45 64
45 67
45 69
45 71
45 72
45 73
45 74
45 78
46 48
46 50
46 52
46 55
46 57
46 65
46 67
46 69
46 70
46 75
46 76
46 79
47 48
47 53
47 54
47 55
47 59
47 61
47 64
47 66
47 68
47 76
47 77
48 50
48 52
48 54
48 55
48 56
48 57
48 58
48 59
48 60
48 72
48 73
48 78
49 51
49 52
49 53
49 55
49 56
49 59
49 62
49 65
49 66
49 71
49 75
49 79
50 52
50 54
50 56
50 57
50 59
50 60
50 64
50 66
50 67
50 68
50 75
50 76
51 52
51 53
51 55
51 56
51 59
51 67
51 69
51 72
51 76
51 79
52 53
52 56
52 59
52 60
52 61
52 63
52 64
52 68
52 71
52 72
52 75
52 76
52 77
52 79
53 54
53 56
53 62
53 63
53 66
53 70
53 72
53 73
53 76
53 77
53 78
54 55
54 56
54 59
54 60
54 64
54 67
54 70
54 72
54 75
54 76
54 77
55 58
55 59
55 67
55 69
55 77
55 79
56 61
56 63
56 65
56 68
56 71
56 73
56 74
56 75
56 76
56 77
56 78
57 58
57 63
57 66
57 68
57 70
57 71
57 73
57 74
57 77
57 78
58 61
58 62
58 66
58 67
58 71
58 79
59 65
59 66
59 67
59 68
59 75
59 76
59 77
59 79
60 61
60 63
60 66
60 68
60 69
60 75
60 77
60 78
61 62
61 63
61 64
61 66
61 69
61 75
61 77
61 78
61 79
62 65
62 68
62 73
62 74
62 75
62 77
62 79
63 64
63 67
63 69
63 72
63 73
63 74
63 78
64 68
64 69
64 74
64 75
64 76
64 77
65 67
65 69
65 70
65 72
65 73
65 74
66 68
66 72
66 73
66 74
66 75
67 69
67 72
67 74
67 78
67 79
68 69
68 70
68 75
69 73
69 74
69 78
69 79
70 71
70 72
70 75
70 77
70 78
71 73
71 76
72 74
72 76
73 74
73 77
74 75
74 77
75 76
75 78
75 79
76 77
77 78
48 18 9 34
65 30 54 23
32 74 26 71
57 8 53 39
37 64 6 75
38 20 33 10
52 61 17 59
22 70 45 43
19 35 41 25
77 78 62 68
16 73 40 67
1 44 79 27
60 11 66 55
15 4 21 12
7 13 56 76
46 63 29 58
5 0 51 36
31 3 49 69
24 72 28 47
50 42 14 2
